n=150;
k_min=3;
k_max=3;
M=[| 0.16, 1.0, 0.0
 | 0.16, 1.0, 0.0
 | 0.16, 1.0, 0.0
 | 0.16, 1.0, 0.0
 | 0.16, 1.0, 0.0
 | 0.16, 1.0, 0.0
 | 0.16, 1.0, 0.0
 | 0.16, 0.86, 0.0
 | 0.16, 0.98, 0.0
 | 0.16, 0.98, 0.0
 | 0.16, 1.0, 0.0
 | 0.16, 1.0, 0.0
 | 0.16, 1, 0.0
 | 0.16, 0.98, 0.0
 | 0.16, 1.0, 0.0
 | 0.16, 1.0, 0.0
 | 0.16, 1.0, 0.0
 | 0.16, 1.0, 0.0
 | 0.16, 1.0, 0.0
 | 0.16, 0.94, 0.0
 | 0.16, 0.96, 0.0
 | 0.16, 0.94, 0.0
 | 0.16, 0.96, 0.0
 | 0.16, 0.96, 0.0
 | 0.16, 0.98, 0.0
 | 0.16, 0.98, 0.0
 | 0.16, 0.96, 0.0
 | 0.16, 0.98, 0.0
 | 0.0, 1.0, 0.0
 | 0.16, 1.0, 0.0
 | 0.16, 1.0, 0.0
 | 0.16, 0.96, 0.0
 | 0.16, 1.0, 0.0
 | 0.16, 1.0, 0.0
 | 0.16, 0.98, 0.0
 | 0.0, 0.94, 0.0
 | 0.16, 0.9, 0.0
 | 0.16, 0.98, 0.0
 | 0.16, 0.98, 0.0
 | 0.16, 0.98, 0.0
 | 0.16, 0.98, 0.0
 | 0.16, 0.98, 0.0
 | 0.16, 0.98, 0.0
 | 0.16, 0.96, 0.0
 | 0.16, 0.92, 0.0
 | 0.16, 1.0, 0.0
 | 0.16, 0.94, 0.0
 | 0.16, 1.0, 0.0
 | 0.16, 1, 0.0
 | 0.16, 1.0, 0.0
 | 0.98, 0.0, 0.16
 | 0.98, 0.0, 0.16
 | 0.92, 0.0, 0.22
 | 1.0, 0.0, 0.16
 | 1.0, 0.0, 0.16
 | 1.0, 0.0, 0.16
 | 0.98, 0.0, 0.16
 | 1.0, 0.16, 0.0
 | 1.0, 0.0, 0.16
 | 1.0, 0.0, 0.16
 | 0.92, 0.0, 0.16
 | 0.96, 0.0, 0.16
 | 0.88, 0.0, 0.16
 | 1.0, 0.0, 0.16
 | 1.0, 0.0, 0.16
 | 1.0, 0.0, 0.16
 | 0.92, 0.0, 0.16
 | 0.98, 0.0, 0.16
 | 1, 0.0, 0.16
 | 1.0, 0.0, 0.16
 | 0.98, 0.0, 0.16
 | 0.92, 0.0, 0.16
 | 0.96, 0.0, 0.16
 | 1, 0.0, 0.16
 | 0.96, 0.0, 0.16
 | 1.0, 0.0, 0.16
 | 1.0, 0.0, 0.16
 | 0.92, 0.0, 0.22
 | 0.9, 0.0, 0.16
 | 1.0, 0.0, 0.16
 | 0.94, 0.0, 0.16
 | 1.0, 0.0, 0.16
 | 0.98, 0.0, 0.16
 | 0.98, 0.0, 0.16
 | 0.98, 0.0, 0.16
 | 0.96, 0.0, 0.16
 | 1.0, 0.0, 0.16
 | 0.94, 0.0, 0.16
 | 1.0, 0.0, 0.16
 | 0.96, 0.0, 0.16
 | 0.98, 0.0, 0.16
 | 0.98, 0.0, 0.16
 | 1, 0.0, 0.16
 | 1.0, 0.16, 0.0
 | 1.0, 0.0, 0.16
 | 1.0, 0.0, 0.16
 | 1.0, 0.0, 0.16
 | 0.92, 0.0, 0.16
 | 1.0, 0.16, 0.0
 | 1.0, 0.0, 0.16
 | 0.92, 0.0, 0.5
 | 0.98, 0.0, 0.16
 | 0.48, 0.0, 1.0
 | 0.96, 0.0, 0.44
 | 0.96, 0.0, 0.5
 | 0.36, 0.0, 1.0
 | 0.92, 0.0, 0.16
 | 0.36, 0.0, 0.94
 | 0.96, 0.0, 0.52
 | 0.36, 0.0, 0.92
 | 1.0, 0.0, 0.3
 | 0.66, 0.0, 0.24
 | 1.0, 0.0, 0.48
 | 0.98, 0.0, 0.16
 | 0.84, 0.0, 0.16
 | 0.92, 0.0, 0.42
 | 0.96, 0.0, 0.44
 | 0.36, 0.0, 0.98
 | 0.36, 0.0, 1.0
 | 0.96, 0.0, 0.16
 | 0.94, 0.0, 0.52
 | 0.98, 0.0, 0.16
 | 0.36, 0.0, 1.0
 | 0.98, 0.0, 0.16
 | 0.94, 0.0, 1
 | 0.36, 0.0, 0.92
 | 1.0, 0.0, 0.16
 | 0.98, 0.0, 0.16
 | 0.98, 0.0, 0.46
 | 0.48, 0.0, 0.98
 | 0.36, 0.0, 0.94
 | 0.36, 0.0, 0.98
 | 0.98, 0.0, 0.46
 | 0.98, 0.0, 0.16
 | 0.92, 0.0, 0.22
 | 0.36, 0.0, 0.98
 | 0.94, 0.0, 0.48
 | 0.96, 0.0, 0.44
 | 0.98, 0.0, 0.16
 | 1.0, 0.0, 0.48
 | 0.94, 0.0, 0.52
 | 0.96, 0.0, 0.44
 | 0.98, 0.0, 0.16
 | 0.94, 0.0, 0.52
 | 0.92, 0.0, 0.5
 | 0.94, 0.0, 0.42
 | 0.98, 0.0, 0.16
 | 1.0, 0.0, 0.3
 | 0.92, 0.0, 0.42
 | 0.98, 0.0, 0.16 |];
 P=[2, 2, 2, 2, 2, 2, 2, 2, 2, 2, 2, 2, 2, 2, 2, 2, 2, 2, 2, 2, 2, 2, 2, 2, 2, 2, 2, 2, 2, 2, 2, 2, 2, 2, 2, 2, 2, 2, 2, 2, 2, 2, 2, 2, 2, 2, 2, 2, 2, 2, 1, 1, 1, 1, 1, 1, 1, 1, 1, 1, 1, 1, 1, 1, 1, 1, 1, 1, 1, 1, 1, 1, 1, 1, 1, 1, 1, 1, 1, 1, 1, 1, 1, 1, 1, 1, 1, 1, 1, 1, 1, 1, 1, 1, 1, 1, 1, 1, 1, 1, 1, 1, 3, 1, 1, 3, 1, 3, 1, 3, 1, 1, 1, 1, 1, 1, 1, 3, 3, 1, 1, 1, 3, 1, 1, 3, 1, 1, 1, 3, 3, 3, 1, 1, 1, 3, 1, 1, 1, 1, 1, 1, 1, 1, 1, 1, 1, 1, 1, 1 ];